10J3M/DAT/10J3MUNA-19.dat
10 3
2.3303 5.4303
5.666 32.1036
42.0248 1766.0838
19.959 398.3617
31.9592 1021.3905
20.9118 437.3034
34.5382 1192.8873
26.9437 725.963
18.1461 329.2809
11.3961 129.8711
6038.6756