10J3M/SOL/10J3MUNA-19.sol
solution status: optimal solution found
objective value:                     73.1763666666667
x#1#1                                               1 	(obj:0)
x#2#1                               0.351996158371819 	(obj:0)
x#2#2                               0.648003841628181 	(obj:0)
x#3#1                                               1 	(obj:0)
x#4#1                                               1 	(obj:0)
x#5#1                                               1 	(obj:0)
x#6#2                               0.383842986919231 	(obj:0)
x#6#3                               0.616157013080769 	(obj:0)
x#7#1                                               1 	(obj:0)
x#8#1                                               1 	(obj:0)
x#9#3                                               1 	(obj:0)
x#10#2                                              1 	(obj:0)
z                                    73.1763666666667 	(obj:1)
